outputs/demo_outputs/demo_outputs/rsa_demo_benchmark_output/64/certs/0008.assert.smt2
; benchmark generated from python API
(set-info :status unknown)
(declare-fun p () Int)
(declare-fun q () Int)
(declare-fun n () Int)
(assert
 (= p 3848996093))
(assert
 (= q 4105354889))
(assert
 (= n 15801494928139448677))
(assert
 (let ((?x31 (* p q)))
 (= ?x31 n)))
(assert
 (> p 1))
(assert
 (> q 1))
(check-sat)
